MARKOV
100
4 4 4 4 2 2 2 2 4 4 4 2 2 2 2 2 2 2 4 4 2 2 2 2 2 2 2 2 4 4 2 4 2 4 2 2 2 2 2 2 2 2 2 2 2 2 2 2 2 4 2 2 2 2 2 2 4 4 2 4 2 2 2 2 2 2 2 4 2 2 2 2 2 2 2 2 2 2 2 2 2 4 4 4 4 4 2 4 2 2 4 2 2 4 2 2 2 4 4 4
710
2 63 65
2 2 0
2 12 19
2 11 20
2 57 62
2 51 54
2 10 8
2 92 85
2 99 95
2 21 9
2 21 8
2 57 50
2 91 99
2 92 93
2 8 18
2 58 52
2 4 11
2 46 49
2 19 9
2 86 94
2 54 62
2 28 34
2 99 98
2 33 34
2 85 87
2 68 56
2 96 95
2 59 52
2 51 49
2 16 19
2 14 18
2 66 64
2 53 54
2 91 97
2 22 23
2 63 60
2 94 95
2 3 5
2 90 95
2 11 8
2 44 53
2 19 14
2 46 52
2 21 11
2 53 61
3 40 71 59
3 39 71 57
2 94 98
2 93 95
2 11 34
2 45 56
2 68 58
2 61 59
2 90 98
2 68 67
2 50 55
2 32 50
2 20 9
2 30 50
2 32 60
2 44 59
2 20 8
2 33 32
2 46 45
3 48 38 71
2 65 62
2 39 38
2 63 54
2 74 72
2 80 78
3 38 71 59
2 22 17
2 58 64
2 41 56
2 45 58
2 45 67
2 49 62
2 91 85
2 60 62
2 61 62
2 59 64
2 63 61
2 8 9
2 59 47
2 44 62
2 60 65
2 61 65
2 86 98
2 66 58
2 56 62
2 85 82
2 26 23
2 46 64
2 41 58
2 48 49
2 91 93
2 7 10
2 56 65
2 70 67
2 89 94
2 8 14
2 51 64
2 33 28
2 58 56
2 67 62
2 49 50
2 55 54
2 67 65
2 61 50
2 61 60
2 59 56
2 86 92
2 20 17
2 99 87
2 44 50
2 76 77
2 92 87
2 82 87
2 57 52
2 56 50
2 31 33
2 56 60
2 92 90
2 6 10
2 46 56
2 32 30
2 58 67
2 12 20
2 13 16
2 14 9
2 68 59
2 24 23
2 21 19
2 88 82
2 84 83
2 91 95
2 45 53
2 85 81
2 67 60
2 59 67
2 13 7
2 88 91
2 85 97
2 48 42
2 96 88
2 60 54
2 61 54
2 57 42
2 37 39
2 46 58
2 69 67
2 32 45
2 46 67
2 30 45
2 16 20
2 45 59
2 66 65
2 43 42
2 68 57
2 41 53
2 56 54
2 32 27
2 68 62
2 88 99
2 21 22
3 40 71 49
2 30 27
2 92 89
2 37 36
2 68 65
3 39 71 47
2 61 49
2 48 47
2 57 64
2 76 75
2 58 55
2 57 47
2 44 49
2 87 93
2 65 52
2 41 59
2 86 87
2 20 19
2 43 47
2 45 62
2 50 52
2 86 90
2 80 77
2 46 68
2 88 97
2 45 65
2 85 83
2 49 52
2 97 95
2 13 9
2 68 60
2 33 30
2 13 8
2 66 57
2 89 95
2 44 52
2 46 55
2 20 10
2 26 25
2 41 62
3 39 71 56
2 25 24
2 48 56
2 51 55
2 96 91
2 57 56
2 90 82
2 41 65
2 97 98
2 85 93
2 94 91
2 29 27
2 89 98
2 80 81
2 43 56
2 45 51
2 45 50
2 45 60
2 49 42
2 53 59
2 86 89
2 13 11
2 94 99
2 65 64
2 48 67
2 21 18
2 34 60
2 56 42
2 99 97
2 41 51
2 41 50
2 58 57
3 40 71 47
2 75 72
2 41 60
2 31 30
2 50 64
2 7 9
2 7 8
2 19 18
2 68 61
2 86 82
2 58 65
2 49 64
2 30 46
2 68 66
2 61 64
2 49 47
2 73 72
2 79 77
2 59 57
2 59 62
2 88 85
2 53 62
2 44 64
2 45 54
2 13 17
2 59 65
2 56 64
2 39 35
3 48 39 71
2 63 59
2 94 97
3 38 71 47
2 46 57
2 86 99
2 90 97
2 21 20
2 96 94
2 31 27
2 88 98
2 46 65
2 45 66
2 12 17
2 51 57
2 6 5
2 6 9
2 67 64
3 40 71 56
2 41 54
2 74 75
2 67 47
2 58 60
2 6 8
2 4 32
2 45 49
2 57 55
2 49 56
2 20 18
2 66 61
2 37 38
2 53 51
2 53 50
2 59 60
2 40 39
2 41 49
2 76 78
2 22 24
2 44 56
2 63 62
2 70 66
2 6 14
3 38 71 56
2 92 94
2 32 34
2 16 17
2 40 36
2 46 60
2 86 97
2 99 93
2 29 34
2 4 3
2 89 87
2 58 54
2 90 83
2 44 58
2 77 78
3 39 71 59
2 19 8
2 11 16
2 45 44
2 44 67
2 27 44
3 48 40 71
2 68 69
2 23 17
2 59 54
2 89 88
2 94 85
2 63 51
2 63 50
2 11 7
2 86 84
2 13 19
2 94 93
2 90 93
2 58 49
2 81 82
2 41 44
2 55 62
2 46 54
2 96 98
2 74 73
2 68 63
2 48 57
2 10 5
2 10 9
2 59 49
2 13 10
2 51 52
2 53 49
2 86 83
2 44 68
2 17 10
2 92 95
2 2 3
2 46 61
2 28 32
2 46 66
2 57 65
2 26 24
2 49 55
2 60 55
2 61 55
2 43 57
2 45 64
2 66 56
2 44 55
2 93 98
2 12 10
2 86 85
2 10 14
2 88 87
2 96 92
2 56 55
2 45 63
2 27 46
2 70 69
2 92 98
2 53 52
2 86 93
2 64 52
2 71 72
2 21 23
2 15 5
2 15 9
2 88 90
2 15 8
2 41 64
2 89 82
2 84 82
2 11 9
2 66 63
2 36 38
2 57 60
2 63 49
2 89 91
2 41 63
2 66 67
2 89 97
2 16 10
2 23 19
2 29 32
2 15 14
2 2 1
2 46 44
2 59 42
2 89 99
2 30 60
2 63 52
2 21 17
2 31 34
3 40 71 57
2 86 95
2 50 62
2 57 54
2 61 57
2 99 90
2 40 38
2 79 78
2 50 65
2 8 5
2 53 64
2 44 57
2 13 18
2 49 65
2 84 81
2 96 87
2 54 52
2 17 18
2 13 4
2 44 65
2 22 19
2 29 28
3 38 71 57
2 51 56
3 39 71 49
2 5 9
2 94 87
2 96 99
2 11 17
2 96 90
2 90 87
2 12 18
2 94 90
2 12 16
2 31 32
2 46 63
2 43 49
2 91 98
2 45 68
2 55 52
2 89 84
2 46 41
2 45 55
2 12 7
2 49 60
2 13 20
2 53 56
2 44 51
2 63 64
2 51 58
2 44 60
2 13 12
2 4 30
2 85 84
2 16 18
2 66 59
2 4 10
2 92 88
2 65 54
2 96 89
2 89 83
2 41 55
2 13 21
2 53 58
2 37 35
2 50 54
2 23 18
2 31 28
2 60 52
2 61 52
2 49 54
2 28 30
2 89 85
2 32 44
2 4 27
2 30 44
2 97 93
2 63 56
2 66 62
2 44 54
2 12 34
2 21 10
2 89 93
2 17 9
2 17 8
2 56 52
2 15 19
2 13 34
2 31 29
2 55 64
2 11 19
2 12 9
2 58 59
2 88 84
2 12 8
2 44 61
2 44 66
2 27 50
2 46 53
2 27 60
2 28 27
2 15 10
2 63 58
2 63 67
2 33 27
2 26 22
2 11 10
2 45 57
2 29 30
2 59 55
3 38 71 49
2 53 55
2 22 18
2 66 60
2 88 83
2 16 9
2 46 59
2 92 91
2 86 88
2 16 8
2 58 62
2 32 46
2 83 87
2 12 11
2 60 64
2 91 87
2 51 59
2 88 94
2 41 57
2 91 90
2 85 95
2 96 97
2 88 93
2 4 16
2 56 47
2 92 99
2 46 62
2 22 20
2 4 7
2 63 55
2 58 50
2 51 62
2 10 18
2 87 95
2 51 65
2 61 56
2 59 50
2 21 16
2 36 35
2 92 97
2 25 23
2 90 84
2 87 98
2 53 57
2 64 62
2 46 51
2 46 50
2 86 91
2 88 95
2 45 52
2 15 18
2 53 65
2 51 50
2 61 58
2 44 63
2 84 87
2 61 67
2 67 56
2 11 18
2 51 60
2 74 71
2 83 82
2 48 59
2 89 90
2 96 85
2 45 61
2 3 7
2 41 52
2 27 45
2 4 9
2 96 93
2 40 35
2 4 8
2 43 59
2 68 64
2 17 19
2 4 34
2 63 57
2 53 60
2 3 6
2 41 61
2 95 98
2 34 27
1 0
1 1
1 2
1 3
1 4
1 5
1 6
1 7
1 8
1 9
1 10
1 11
1 12
1 13
1 14
1 15
1 16
1 17
1 18
1 19
1 20
1 21
1 22
1 23
1 24
1 25
1 26
1 27
1 28
1 29
1 30
1 31
1 32
1 33
1 34
1 35
1 36
1 37
1 38
1 39
1 40
1 41
1 42
1 43
1 44
1 45
1 46
1 47
1 48
1 49
1 50
1 51
1 52
1 53
1 54
1 55
1 56
1 57
1 58
1 59
1 60
1 61
1 62
1 63
1 64
1 65
1 66
1 67
1 68
1 69
1 70
1 71
1 72
1 73
1 74
1 75
1 76
1 77
1 78
1 79
1 80
1 81
1 82
1 83
1 84
1 85
1 86
1 87
1 88
1 89
1 90
1 91
1 92
1 93
1 94
1 95
1 96
1 97
1 98
1 99
4
0.0001
1.0
1.0
1.0

16
0.0001
1.0
1.0
1.0
1.0
0.0001
1.0
1.0
1.0
1.0
0.0001
1.0
1.0
1.0
1.0
1.0

8
0.0001
1.0
0.0001
1.0
1.0
1.0
1.0
1.0

4
0.0001
1.0
1.0
1.0

8
0.0001
1.0
1.0
1.0
0.0001
1.0
1.0
1.0

4
0.0001
1.0
1.0
1.0

16
0.0001
1.0
1.0
1.0
1.0
0.0001
1.0
1.0
1.0
1.0
0.0001
1.0
1.0
1.0
1.0
1.0

8
0.0001
1.0
0.0001
1.0
1.0
1.0
1.0
1.0

8
0.0001
1.0
1.0
1.0
0.0001
1.0
1.0
1.0

8
0.0001
1.0
0.0001
1.0
1.0
1.0
1.0
1.0

8
0.0001
1.0
0.0001
1.0
1.0
1.0
1.0
1.0

8
0.0001
1.0
1.0
1.0
0.0001
1.0
1.0
1.0

8
0.0001
1.0
0.0001
1.0
1.0
1.0
1.0
1.0

8
0.0001
1.0
0.0001
1.0
1.0
1.0
1.0
1.0

16
0.0001
1.0
1.0
1.0
1.0
0.0001
1.0
1.0
1.0
1.0
0.0001
1.0
1.0
1.0
1.0
1.0

4
0.0001
1.0
1.0
1.0

4
0.0001
1.0
1.0
1.0

8
0.0001
1.0
0.0001
1.0
1.0
1.0
1.0
1.0

16
0.0001
1.0
1.0
1.0
1.0
0.0001
1.0
1.0
1.0
1.0
0.0001
1.0
1.0
1.0
1.0
1.0

4
0.0001
1.0
1.0
1.0

4
0.0001
1.0
1.0
1.0

8
0.0001
1.0
1.0
1.0
0.0001
1.0
1.0
1.0

16
0.0001
1.0
1.0
1.0
1.0
0.0001
1.0
1.0
1.0
1.0
0.0001
1.0
1.0
1.0
1.0
1.0

8
0.0001
1.0
1.0
1.0
0.0001
1.0
1.0
1.0

16
0.0001
1.0
1.0
1.0
1.0
0.0001
1.0
1.0
1.0
1.0
0.0001
1.0
1.0
1.0
1.0
1.0

8
0.0001
1.0
0.0001
1.0
1.0
1.0
1.0
1.0

4
0.0001
1.0
1.0
1.0

8
0.0001
1.0
1.0
1.0
0.0001
1.0
1.0
1.0

8
0.0001
1.0
0.0001
1.0
1.0
1.0
1.0
1.0

8
0.0001
1.0
0.0001
1.0
1.0
1.0
1.0
1.0

8
1.0
0.0001
1.0
1.0
1.0
1.0
1.0
1.0

4
0.0001
1.0
1.0
1.0

4
0.0001
1.0
1.0
1.0

8
0.0001
1.0
0.0001
1.0
1.0
1.0
1.0
1.0

4
0.0001
1.0
1.0
1.0

4
0.0001
1.0
1.0
1.0

4
0.0001
1.0
1.0
1.0

8
1.0
1.0
0.0001
1.0
1.0
1.0
1.0
1.0

8
0.0001
1.0
1.0
1.0
0.0001
1.0
1.0
1.0

8
0.0001
1.0
0.0001
1.0
1.0
1.0
1.0
1.0

4
0.0001
1.0
1.0
1.0

8
1.0
1.0
0.0001
1.0
1.0
1.0
1.0
1.0

4
0.0001
1.0
1.0
1.0

4
0.0001
1.0
1.0
1.0

4
0.0001
1.0
1.0
1.0

16
1.0
0.0001
1.0
1.0
1.0
1.0
1.0
1.0
1.0
1.0
1.0
1.0
1.0
1.0
1.0
1.0

16
1.0
0.0001
1.0
1.0
1.0
1.0
1.0
1.0
1.0
1.0
1.0
1.0
1.0
1.0
1.0
1.0

8
0.0001
1.0
0.0001
1.0
1.0
1.0
1.0
1.0

8
0.0001
1.0
1.0
1.0
0.0001
1.0
1.0
1.0

4
0.0001
1.0
1.0
1.0

8
0.0001
1.0
0.0001
1.0
1.0
1.0
1.0
1.0

4
0.0001
1.0
1.0
1.0

8
0.0001
1.0
0.0001
1.0
1.0
1.0
1.0
1.0

16
0.0001
1.0
1.0
1.0
1.0
0.0001
1.0
1.0
1.0
1.0
0.0001
1.0
1.0
1.0
1.0
1.0

8
0.0001
1.0
0.0001
1.0
1.0
1.0
1.0
1.0

4
0.0001
1.0
1.0
1.0

4
0.0001
1.0
1.0
1.0

8
0.0001
1.0
0.0001
1.0
1.0
1.0
1.0
1.0

4
0.0001
1.0
1.0
1.0

4
0.0001
1.0
1.0
1.0

8
0.0001
1.0
0.0001
1.0
1.0
1.0
1.0
1.0

8
0.0001
1.0
0.0001
1.0
1.0
1.0
1.0
1.0

8
0.0001
1.0
1.0
1.0
0.0001
1.0
1.0
1.0

4
0.0001
1.0
1.0
1.0

8
0.0001
1.0
1.0
1.0
1.0
1.0
1.0
1.0

4
0.0001
1.0
1.0
1.0

4
0.0001
1.0
1.0
1.0

4
0.0001
1.0
1.0
1.0

4
0.0001
1.0
1.0
1.0

4
0.0001
1.0
1.0
1.0

16
1.0
0.0001
1.0
1.0
1.0
1.0
1.0
1.0
1.0
1.0
1.0
1.0
1.0
1.0
1.0
1.0

4
0.0001
1.0
1.0
1.0

4
0.0001
1.0
1.0
1.0

8
0.0001
1.0
0.0001
1.0
1.0
1.0
1.0
1.0

4
0.0001
1.0
1.0
1.0

8
0.0001
1.0
0.0001
1.0
1.0
1.0
1.0
1.0

8
0.0001
1.0
1.0
1.0
0.0001
1.0
1.0
1.0

8
0.0001
1.0
0.0001
1.0
1.0
1.0
1.0
1.0

4
0.0001
1.0
1.0
1.0

4
0.0001
1.0
1.0
1.0

8
0.0001
1.0
1.0
1.0
0.0001
1.0
1.0
1.0

4
0.0001
1.0
1.0
1.0

16
0.0001
1.0
1.0
1.0
1.0
0.0001
1.0
1.0
1.0
1.0
0.0001
1.0
1.0
1.0
1.0
1.0

8
1.0
1.0
0.0001
1.0
1.0
1.0
1.0
1.0

4
0.0001
1.0
1.0
1.0

4
0.0001
1.0
1.0
1.0

4
0.0001
1.0
1.0
1.0

8
0.0001
1.0
0.0001
1.0
1.0
1.0
1.0
1.0

4
0.0001
1.0
1.0
1.0

8
0.0001
1.0
1.0
1.0
0.0001
1.0
1.0
1.0

16
0.0001
1.0
1.0
1.0
1.0
0.0001
1.0
1.0
1.0
1.0
0.0001
1.0
1.0
1.0
1.0
1.0

4
0.0001
1.0
1.0
1.0

4
0.0001
1.0
1.0
1.0

4
0.0001
1.0
1.0
1.0

8
1.0
0.0001
1.0
1.0
1.0
1.0
1.0
1.0

8
0.0001
1.0
0.0001
1.0
1.0
1.0
1.0
1.0

8
0.0001
1.0
0.0001
1.0
1.0
1.0
1.0
1.0

8
0.0001
1.0
1.0
1.0
0.0001
1.0
1.0
1.0

8
0.0001
1.0
0.0001
1.0
1.0
1.0
1.0
1.0

4
0.0001
1.0
1.0
1.0

8
1.0
1.0
0.0001
1.0
1.0
1.0
1.0
1.0

4
0.0001
1.0
1.0
1.0

16
0.0001
1.0
1.0
1.0
1.0
0.0001
1.0
1.0
1.0
1.0
0.0001
1.0
1.0
1.0
1.0
1.0

8
0.0001
1.0
0.0001
1.0
1.0
1.0
1.0
1.0

8
0.0001
1.0
1.0
1.0
0.0001
1.0
1.0
1.0

8
0.0001
1.0
1.0
1.0
0.0001
1.0
1.0
1.0

4
0.0001
1.0
1.0
1.0

8
0.0001
1.0
1.0
1.0
0.0001
1.0
1.0
1.0

4
0.0001
1.0
1.0
1.0

4
0.0001
1.0
1.0
1.0

16
0.0001
1.0
1.0
1.0
1.0
0.0001
1.0
1.0
1.0
1.0
0.0001
1.0
1.0
1.0
1.0
1.0

4
0.0001
1.0
1.0
1.0

4
0.0001
1.0
1.0
1.0

16
0.0001
1.0
1.0
1.0
1.0
0.0001
1.0
1.0
1.0
1.0
0.0001
1.0
1.0
1.0
1.0
1.0

4
0.0001
1.0
1.0
1.0

4
0.0001
1.0
1.0
1.0

8
0.0001
1.0
0.0001
1.0
1.0
1.0
1.0
1.0

16
0.0001
1.0
1.0
1.0
1.0
0.0001
1.0
1.0
1.0
1.0
0.0001
1.0
1.0
1.0
1.0
1.0

8
0.0001
1.0
1.0
1.0
0.0001
1.0
1.0
1.0

8
0.0001
1.0
1.0
1.0
0.0001
1.0
1.0
1.0

16
0.0001
1.0
1.0
1.0
1.0
0.0001
1.0
1.0
1.0
1.0
0.0001
1.0
1.0
1.0
1.0
1.0

8
0.0001
1.0
1.0
1.0
0.0001
1.0
1.0
1.0

8
0.0001
1.0
0.0001
1.0
1.0
1.0
1.0
1.0

8
1.0
0.0001
1.0
1.0
1.0
1.0
1.0
1.0

8
0.0001
1.0
0.0001
1.0
1.0
1.0
1.0
1.0

4
0.0001
1.0
1.0
1.0

8
0.0001
1.0
0.0001
1.0
1.0
1.0
1.0
1.0

4
0.0001
1.0
1.0
1.0

4
0.0001
1.0
1.0
1.0

8
1.0
0.0001
1.0
1.0
1.0
1.0
1.0
1.0

8
0.0001
1.0
0.0001
1.0
1.0
1.0
1.0
1.0

4
0.0001
1.0
1.0
1.0

8
0.0001
1.0
0.0001
1.0
1.0
1.0
1.0
1.0

8
0.0001
1.0
0.0001
1.0
1.0
1.0
1.0
1.0

16
0.0001
1.0
1.0
1.0
1.0
0.0001
1.0
1.0
1.0
1.0
0.0001
1.0
1.0
1.0
1.0
1.0

4
0.0001
1.0
1.0
1.0

4
0.0001
1.0
1.0
1.0

16
0.0001
1.0
1.0
1.0
1.0
0.0001
1.0
1.0
1.0
1.0
0.0001
1.0
1.0
1.0
1.0
1.0

8
0.0001
1.0
1.0
1.0
0.0001
1.0
1.0
1.0

16
0.0001
1.0
1.0
1.0
1.0
0.0001
1.0
1.0
1.0
1.0
0.0001
1.0
1.0
1.0
1.0
1.0

4
0.0001
1.0
1.0
1.0

4
0.0001
1.0
1.0
1.0

16
0.0001
1.0
1.0
1.0
1.0
0.0001
1.0
1.0
1.0
1.0
0.0001
1.0
1.0
1.0
1.0
1.0

4
0.0001
1.0
1.0
1.0

4
0.0001
1.0
1.0
1.0

4
0.0001
1.0
1.0
1.0

4
0.0001
1.0
1.0
1.0

8
1.0
1.0
0.0001
1.0
1.0
1.0
1.0
1.0

4
0.0001
1.0
1.0
1.0

4
0.0001
1.0
1.0
1.0

8
0.0001
1.0
0.0001
1.0
1.0
1.0
1.0
1.0

4
0.0001
1.0
1.0
1.0

8
0.0001
1.0
0.0001
1.0
1.0
1.0
1.0
1.0

4
0.0001
1.0
1.0
1.0

4
0.0001
1.0
1.0
1.0

8
0.0001
1.0
0.0001
1.0
1.0
1.0
1.0
1.0

4
0.0001
1.0
1.0
1.0

4
0.0001
1.0
1.0
1.0

8
0.0001
1.0
0.0001
1.0
1.0
1.0
1.0
1.0

4
0.0001
1.0
1.0
1.0

8
0.0001
1.0
1.0
1.0
0.0001
1.0
1.0
1.0

4
0.0001
1.0
1.0
1.0

4
0.0001
1.0
1.0
1.0

8
0.0001
1.0
0.0001
1.0
1.0
1.0
1.0
1.0

4
0.0001
1.0
1.0
1.0

16
1.0
0.0001
1.0
1.0
1.0
1.0
1.0
1.0
1.0
1.0
1.0
1.0
1.0
1.0
1.0
1.0

4
0.0001
1.0
1.0
1.0

4
0.0001
1.0
1.0
1.0

4
0.0001
1.0
1.0
1.0

4
0.0001
1.0
1.0
1.0

8
0.0001
1.0
1.0
1.0
1.0
1.0
1.0
1.0

8
0.0001
1.0
0.0001
1.0
1.0
1.0
1.0
1.0

4
0.0001
1.0
1.0
1.0

8
0.0001
1.0
1.0
1.0
0.0001
1.0
1.0
1.0

4
0.0001
1.0
1.0
1.0

4
0.0001
1.0
1.0
1.0

8
1.0
1.0
0.0001
1.0
1.0
1.0
1.0
1.0

8
0.0001
1.0
0.0001
1.0
1.0
1.0
1.0
1.0

16
0.0001
1.0
1.0
1.0
1.0
0.0001
1.0
1.0
1.0
1.0
0.0001
1.0
1.0
1.0
1.0
1.0

4
0.0001
1.0
1.0
1.0

8
0.0001
1.0
0.0001
1.0
1.0
1.0
1.0
1.0

8
0.0001
1.0
0.0001
1.0
1.0
1.0
1.0
1.0

8
0.0001
1.0
0.0001
1.0
1.0
1.0
1.0
1.0

4
0.0001
1.0
1.0
1.0

4
0.0001
1.0
1.0
1.0

4
0.0001
1.0
1.0
1.0

8
0.0001
1.0
0.0001
1.0
1.0
1.0
1.0
1.0

4
0.0001
1.0
1.0
1.0

4
0.0001
1.0
1.0
1.0

8
0.0001
1.0
0.0001
1.0
1.0
1.0
1.0
1.0

4
0.0001
1.0
1.0
1.0

16
0.0001
1.0
1.0
1.0
1.0
0.0001
1.0
1.0
1.0
1.0
0.0001
1.0
1.0
1.0
1.0
1.0

8
0.0001
1.0
1.0
1.0
0.0001
1.0
1.0
1.0

8
0.0001
1.0
1.0
1.0
0.0001
1.0
1.0
1.0

8
0.0001
1.0
0.0001
1.0
1.0
1.0
1.0
1.0

4
0.0001
1.0
1.0
1.0

8
0.0001
1.0
1.0
1.0
0.0001
1.0
1.0
1.0

8
0.0001
1.0
0.0001
1.0
1.0
1.0
1.0
1.0

8
0.0001
1.0
0.0001
1.0
1.0
1.0
1.0
1.0

4
0.0001
1.0
1.0
1.0

4
0.0001
1.0
1.0
1.0

4
0.0001
1.0
1.0
1.0

8
0.0001
1.0
0.0001
1.0
1.0
1.0
1.0
1.0

4
0.0001
1.0
1.0
1.0

4
0.0001
1.0
1.0
1.0

16
1.0
0.0001
1.0
1.0
1.0
1.0
1.0
1.0
1.0
1.0
1.0
1.0
1.0
1.0
1.0
1.0

4
0.0001
1.0
1.0
1.0

8
1.0
0.0001
1.0
1.0
1.0
1.0
1.0
1.0

4
0.0001
1.0
1.0
1.0

4
0.0001
1.0
1.0
1.0

16
0.0001
1.0
1.0
1.0
1.0
0.0001
1.0
1.0
1.0
1.0
0.0001
1.0
1.0
1.0
1.0
1.0

16
0.0001
1.0
1.0
1.0
1.0
0.0001
1.0
1.0
1.0
1.0
0.0001
1.0
1.0
1.0
1.0
1.0

4
0.0001
1.0
1.0
1.0

16
0.0001
1.0
1.0
1.0
1.0
0.0001
1.0
1.0
1.0
1.0
0.0001
1.0
1.0
1.0
1.0
1.0

16
0.0001
1.0
1.0
1.0
1.0
0.0001
1.0
1.0
1.0
1.0
0.0001
1.0
1.0
1.0
1.0
1.0

4
0.0001
1.0
1.0
1.0

8
0.0001
1.0
1.0
1.0
0.0001
1.0
1.0
1.0

8
0.0001
1.0
0.0001
1.0
1.0
1.0
1.0
1.0

8
0.0001
1.0
0.0001
1.0
1.0
1.0
1.0
1.0

8
1.0
0.0001
1.0
1.0
1.0
1.0
1.0
1.0

4
0.0001
1.0
1.0
1.0

4
0.0001
1.0
1.0
1.0

4
0.0001
1.0
1.0
1.0

8
1.0
1.0
0.0001
1.0
1.0
1.0
1.0
1.0

8
0.0001
1.0
0.0001
1.0
1.0
1.0
1.0
1.0

4
0.0001
1.0
1.0
1.0

4
0.0001
1.0
1.0
1.0

8
0.0001
1.0
0.0001
1.0
1.0
1.0
1.0
1.0

4
0.0001
1.0
1.0
1.0

8
1.0
0.0001
1.0
1.0
1.0
1.0
1.0
1.0

8
0.0001
1.0
0.0001
1.0
1.0
1.0
1.0
1.0

4
0.0001
1.0
1.0
1.0

8
1.0
1.0
0.0001
1.0
1.0
1.0
1.0
1.0

16
0.0001
1.0
1.0
1.0
1.0
0.0001
1.0
1.0
1.0
1.0
0.0001
1.0
1.0
1.0
1.0
1.0

4
0.0001
1.0
1.0
1.0

4
0.0001
1.0
1.0
1.0

8
0.0001
1.0
0.0001
1.0
1.0
1.0
1.0
1.0

8
0.0001
1.0
1.0
1.0
1.0
1.0
1.0
1.0

4
0.0001
1.0
1.0
1.0

4
0.0001
1.0
1.0
1.0

8
0.0001
1.0
1.0
1.0
0.0001
1.0
1.0
1.0

4
0.0001
1.0
1.0
1.0

8
0.0001
1.0
0.0001
1.0
1.0
1.0
1.0
1.0

8
0.0001
1.0
0.0001
1.0
1.0
1.0
1.0
1.0

16
0.0001
1.0
1.0
1.0
1.0
0.0001
1.0
1.0
1.0
1.0
0.0001
1.0
1.0
1.0
1.0
1.0

4
0.0001
1.0
1.0
1.0

8
0.0001
1.0
0.0001
1.0
1.0
1.0
1.0
1.0

4
0.0001
1.0
1.0
1.0

8
0.0001
1.0
1.0
1.0
0.0001
1.0
1.0
1.0

4
0.0001
1.0
1.0
1.0

4
0.0001
1.0
1.0
1.0

4
0.0001
1.0
1.0
1.0

8
1.0
1.0
0.0001
1.0
1.0
1.0
1.0
1.0

4
0.0001
1.0
1.0
1.0

4
0.0001
1.0
1.0
1.0

16
0.0001
1.0
1.0
1.0
1.0
0.0001
1.0
1.0
1.0
1.0
0.0001
1.0
1.0
1.0
1.0
1.0

8
0.0001
1.0
1.0
1.0
0.0001
1.0
1.0
1.0

8
0.0001
1.0
0.0001
1.0
1.0
1.0
1.0
1.0

4
0.0001
1.0
1.0
1.0

4
0.0001
1.0
1.0
1.0

4
0.0001
1.0
1.0
1.0

4
0.0001
1.0
1.0
1.0

8
0.0001
1.0
1.0
1.0
0.0001
1.0
1.0
1.0

8
0.0001
1.0
1.0
1.0
0.0001
1.0
1.0
1.0

4
0.0001
1.0
1.0
1.0

8
0.0001
1.0
1.0
1.0
1.0
1.0
1.0
1.0

8
0.0001
1.0
0.0001
1.0
1.0
1.0
1.0
1.0

8
0.0001
1.0
0.0001
1.0
1.0
1.0
1.0
1.0

8
0.0001
1.0
1.0
1.0
1.0
1.0
1.0
1.0

8
0.0001
1.0
0.0001
1.0
1.0
1.0
1.0
1.0

8
0.0001
1.0
0.0001
1.0
1.0
1.0
1.0
1.0

16
0.0001
1.0
1.0
1.0
1.0
0.0001
1.0
1.0
1.0
1.0
0.0001
1.0
1.0
1.0
1.0
1.0

4
0.0001
1.0
1.0
1.0

4
0.0001
1.0
1.0
1.0

8
0.0001
1.0
1.0
1.0
0.0001
1.0
1.0
1.0

8
0.0001
1.0
0.0001
1.0
1.0
1.0
1.0
1.0

4
0.0001
1.0
1.0
1.0

4
0.0001
1.0
1.0
1.0

4
0.0001
1.0
1.0
1.0

8
0.0001
1.0
0.0001
1.0
1.0
1.0
1.0
1.0

4
0.0001
1.0
1.0
1.0

8
1.0
0.0001
1.0
1.0
1.0
1.0
1.0
1.0

8
0.0001
1.0
1.0
1.0
0.0001
1.0
1.0
1.0

16
1.0
0.0001
1.0
1.0
1.0
1.0
1.0
1.0
1.0
1.0
1.0
1.0
1.0
1.0
1.0
1.0

4
0.0001
1.0
1.0
1.0

4
0.0001
1.0
1.0
1.0

8
1.0
1.0
0.0001
1.0
1.0
1.0
1.0
1.0

4
0.0001
1.0
1.0
1.0

8
1.0
0.0001
1.0
1.0
1.0
1.0
1.0
1.0

4
0.0001
1.0
1.0
1.0

8
0.0001
1.0
0.0001
1.0
1.0
1.0
1.0
1.0

8
0.0001
1.0
1.0
1.0
0.0001
1.0
1.0
1.0

16
0.0001
1.0
1.0
1.0
1.0
0.0001
1.0
1.0
1.0
1.0
0.0001
1.0
1.0
1.0
1.0
1.0

8
0.0001
1.0
0.0001
1.0
1.0
1.0
1.0
1.0

4
0.0001
1.0
1.0
1.0

4
0.0001
1.0
1.0
1.0

4
0.0001
1.0
1.0
1.0

4
0.0001
1.0
1.0
1.0

8
0.0001
1.0
1.0
1.0
0.0001
1.0
1.0
1.0

4
0.0001
1.0
1.0
1.0

8
0.0001
1.0
0.0001
1.0
1.0
1.0
1.0
1.0

4
0.0001
1.0
1.0
1.0

4
0.0001
1.0
1.0
1.0

8
0.0001
1.0
0.0001
1.0
1.0
1.0
1.0
1.0

4
0.0001
1.0
1.0
1.0

4
0.0001
1.0
1.0
1.0

4
0.0001
1.0
1.0
1.0

16
1.0
0.0001
1.0
1.0
1.0
1.0
1.0
1.0
1.0
1.0
1.0
1.0
1.0
1.0
1.0
1.0

4
0.0001
1.0
1.0
1.0

4
0.0001
1.0
1.0
1.0

4
0.0001
1.0
1.0
1.0

4
0.0001
1.0
1.0
1.0

4
0.0001
1.0
1.0
1.0

8
0.0001
1.0
0.0001
1.0
1.0
1.0
1.0
1.0

16
0.0001
1.0
1.0
1.0
1.0
0.0001
1.0
1.0
1.0
1.0
0.0001
1.0
1.0
1.0
1.0
1.0

8
0.0001
1.0
1.0
1.0
0.0001
1.0
1.0
1.0

8
0.0001
1.0
0.0001
1.0
1.0
1.0
1.0
1.0

8
0.0001
1.0
0.0001
1.0
1.0
1.0
1.0
1.0

4
0.0001
1.0
1.0
1.0

16
0.0001
1.0
1.0
1.0
1.0
0.0001
1.0
1.0
1.0
1.0
0.0001
1.0
1.0
1.0
1.0
1.0

4
0.0001
1.0
1.0
1.0

4
0.0001
1.0
1.0
1.0

16
1.0
0.0001
1.0
1.0
1.0
1.0
1.0
1.0
1.0
1.0
1.0
1.0
1.0
1.0
1.0
1.0

16
0.0001
1.0
1.0
1.0
1.0
0.0001
1.0
1.0
1.0
1.0
0.0001
1.0
1.0
1.0
1.0
1.0

4
0.0001
1.0
1.0
1.0

4
0.0001
1.0
1.0
1.0

8
0.0001
1.0
0.0001
1.0
1.0
1.0
1.0
1.0

4
0.0001
1.0
1.0
1.0

8
0.0001
1.0
1.0
1.0
1.0
1.0
1.0
1.0

4
0.0001
1.0
1.0
1.0

4
0.0001
1.0
1.0
1.0

8
0.0001
1.0
1.0
1.0
0.0001
1.0
1.0
1.0

4
0.0001
1.0
1.0
1.0

8
0.0001
1.0
0.0001
1.0
1.0
1.0
1.0
1.0

4
0.0001
1.0
1.0
1.0

4
0.0001
1.0
1.0
1.0

4
0.0001
1.0
1.0
1.0

8
0.0001
1.0
0.0001
1.0
1.0
1.0
1.0
1.0

8
0.0001
1.0
0.0001
1.0
1.0
1.0
1.0
1.0

8
0.0001
1.0
0.0001
1.0
1.0
1.0
1.0
1.0

16
0.0001
1.0
1.0
1.0
1.0
0.0001
1.0
1.0
1.0
1.0
0.0001
1.0
1.0
1.0
1.0
1.0

8
0.0001
1.0
0.0001
1.0
1.0
1.0
1.0
1.0

16
0.0001
1.0
1.0
1.0
1.0
0.0001
1.0
1.0
1.0
1.0
0.0001
1.0
1.0
1.0
1.0
1.0

4
0.0001
1.0
1.0
1.0

4
0.0001
1.0
1.0
1.0

4
0.0001
1.0
1.0
1.0

8
0.0001
1.0
0.0001
1.0
1.0
1.0
1.0
1.0

4
0.0001
1.0
1.0
1.0

4
0.0001
1.0
1.0
1.0

8
1.0
0.0001
1.0
1.0
1.0
1.0
1.0
1.0

8
1.0
1.0
0.0001
1.0
1.0
1.0
1.0
1.0

16
0.0001
1.0
1.0
1.0
1.0
0.0001
1.0
1.0
1.0
1.0
0.0001
1.0
1.0
1.0
1.0
1.0

16
0.0001
1.0
1.0
1.0
1.0
0.0001
1.0
1.0
1.0
1.0
0.0001
1.0
1.0
1.0
1.0
1.0

8
0.0001
1.0
0.0001
1.0
1.0
1.0
1.0
1.0

4
0.0001
1.0
1.0
1.0

8
0.0001
1.0
0.0001
1.0
1.0
1.0
1.0
1.0

8
0.0001
1.0
0.0001
1.0
1.0
1.0
1.0
1.0

4
0.0001
1.0
1.0
1.0

8
0.0001
1.0
0.0001
1.0
1.0
1.0
1.0
1.0

4
0.0001
1.0
1.0
1.0

16
0.0001
1.0
1.0
1.0
1.0
0.0001
1.0
1.0
1.0
1.0
0.0001
1.0
1.0
1.0
1.0
1.0

4
0.0001
1.0
1.0
1.0

8
0.0001
1.0
1.0
1.0
0.0001
1.0
1.0
1.0

4
0.0001
1.0
1.0
1.0

8
0.0001
1.0
1.0
1.0
0.0001
1.0
1.0
1.0

4
0.0001
1.0
1.0
1.0

8
0.0001
1.0
1.0
1.0
0.0001
1.0
1.0
1.0

4
0.0001
1.0
1.0
1.0

4
0.0001
1.0
1.0
1.0

8
1.0
0.0001
1.0
1.0
1.0
1.0
1.0
1.0

4
0.0001
1.0
1.0
1.0

8
0.0001
1.0
0.0001
1.0
1.0
1.0
1.0
1.0

4
0.0001
1.0
1.0
1.0

16
0.0001
1.0
1.0
1.0
1.0
0.0001
1.0
1.0
1.0
1.0
0.0001
1.0
1.0
1.0
1.0
1.0

8
0.0001
1.0
0.0001
1.0
1.0
1.0
1.0
1.0

8
0.0001
1.0
0.0001
1.0
1.0
1.0
1.0
1.0

8
1.0
1.0
0.0001
1.0
1.0
1.0
1.0
1.0

8
0.0001
1.0
0.0001
1.0
1.0
1.0
1.0
1.0

4
0.0001
1.0
1.0
1.0

8
0.0001
1.0
1.0
1.0
0.0001
1.0
1.0
1.0

4
0.0001
1.0
1.0
1.0

4
0.0001
1.0
1.0
1.0

4
0.0001
1.0
1.0
1.0

8
0.0001
1.0
0.0001
1.0
1.0
1.0
1.0
1.0

4
0.0001
1.0
1.0
1.0

8
0.0001
1.0
0.0001
1.0
1.0
1.0
1.0
1.0

4
0.0001
1.0
1.0
1.0

4
0.0001
1.0
1.0
1.0

4
0.0001
1.0
1.0
1.0

4
0.0001
1.0
1.0
1.0

8
1.0
0.0001
1.0
1.0
1.0
1.0
1.0
1.0

8
0.0001
1.0
0.0001
1.0
1.0
1.0
1.0
1.0

8
1.0
0.0001
1.0
1.0
1.0
1.0
1.0
1.0

4
0.0001
1.0
1.0
1.0

8
0.0001
1.0
0.0001
1.0
1.0
1.0
1.0
1.0

16
0.0001
1.0
1.0
1.0
1.0
0.0001
1.0
1.0
1.0
1.0
0.0001
1.0
1.0
1.0
1.0
1.0

8
0.0001
1.0
0.0001
1.0
1.0
1.0
1.0
1.0

4
0.0001
1.0
1.0
1.0

4
0.0001
1.0
1.0
1.0

8
0.0001
1.0
1.0
1.0
0.0001
1.0
1.0
1.0

8
0.0001
1.0
0.0001
1.0
1.0
1.0
1.0
1.0

4
0.0001
1.0
1.0
1.0

4
0.0001
1.0
1.0
1.0

8
0.0001
1.0
0.0001
1.0
1.0
1.0
1.0
1.0

8
0.0001
1.0
0.0001
1.0
1.0
1.0
1.0
1.0

8
0.0001
1.0
0.0001
1.0
1.0
1.0
1.0
1.0

8
0.0001
1.0
0.0001
1.0
1.0
1.0
1.0
1.0

8
0.0001
1.0
1.0
1.0
0.0001
1.0
1.0
1.0

4
0.0001
1.0
1.0
1.0

16
0.0001
1.0
1.0
1.0
1.0
0.0001
1.0
1.0
1.0
1.0
0.0001
1.0
1.0
1.0
1.0
1.0

4
0.0001
1.0
1.0
1.0

8
1.0
1.0
0.0001
1.0
1.0
1.0
1.0
1.0

8
0.0001
1.0
0.0001
1.0
1.0
1.0
1.0
1.0

4
0.0001
1.0
1.0
1.0

4
0.0001
1.0
1.0
1.0

4
0.0001
1.0
1.0
1.0

8
0.0001
1.0
1.0
1.0
0.0001
1.0
1.0
1.0

16
1.0
0.0001
1.0
1.0
1.0
1.0
1.0
1.0
1.0
1.0
1.0
1.0
1.0
1.0
1.0
1.0

4
0.0001
1.0
1.0
1.0

4
0.0001
1.0
1.0
1.0

8
0.0001
1.0
1.0
1.0
0.0001
1.0
1.0
1.0

8
0.0001
1.0
0.0001
1.0
1.0
1.0
1.0
1.0

16
0.0001
1.0
1.0
1.0
1.0
0.0001
1.0
1.0
1.0
1.0
0.0001
1.0
1.0
1.0
1.0
1.0

4
0.0001
1.0
1.0
1.0

4
0.0001
1.0
1.0
1.0

4
0.0001
1.0
1.0
1.0

8
1.0
1.0
0.0001
1.0
1.0
1.0
1.0
1.0

4
0.0001
1.0
1.0
1.0

8
0.0001
1.0
0.0001
1.0
1.0
1.0
1.0
1.0

8
0.0001
1.0
0.0001
1.0
1.0
1.0
1.0
1.0

8
0.0001
1.0
1.0
1.0
0.0001
1.0
1.0
1.0

16
0.0001
1.0
1.0
1.0
1.0
0.0001
1.0
1.0
1.0
1.0
0.0001
1.0
1.0
1.0
1.0
1.0

8
0.0001
1.0
0.0001
1.0
1.0
1.0
1.0
1.0

4
0.0001
1.0
1.0
1.0

8
0.0001
1.0
0.0001
1.0
1.0
1.0
1.0
1.0

4
0.0001
1.0
1.0
1.0

4
0.0001
1.0
1.0
1.0

8
0.0001
1.0
0.0001
1.0
1.0
1.0
1.0
1.0

16
0.0001
1.0
1.0
1.0
1.0
0.0001
1.0
1.0
1.0
1.0
0.0001
1.0
1.0
1.0
1.0
1.0

16
1.0
0.0001
1.0
1.0
1.0
1.0
1.0
1.0
1.0
1.0
1.0
1.0
1.0
1.0
1.0
1.0

8
0.0001
1.0
0.0001
1.0
1.0
1.0
1.0
1.0

16
1.0
0.0001
1.0
1.0
1.0
1.0
1.0
1.0
1.0
1.0
1.0
1.0
1.0
1.0
1.0
1.0

8
1.0
0.0001
1.0
1.0
1.0
1.0
1.0
1.0

8
0.0001
1.0
0.0001
1.0
1.0
1.0
1.0
1.0

8
0.0001
1.0
0.0001
1.0
1.0
1.0
1.0
1.0

4
0.0001
1.0
1.0
1.0

8
0.0001
1.0
0.0001
1.0
1.0
1.0
1.0
1.0

16
0.0001
1.0
1.0
1.0
1.0
0.0001
1.0
1.0
1.0
1.0
0.0001
1.0
1.0
1.0
1.0
1.0

8
0.0001
1.0
0.0001
1.0
1.0
1.0
1.0
1.0

8
0.0001
1.0
0.0001
1.0
1.0
1.0
1.0
1.0

4
0.0001
1.0
1.0
1.0

8
0.0001
1.0
1.0
1.0
0.0001
1.0
1.0
1.0

4
0.0001
1.0
1.0
1.0

8
1.0
0.0001
1.0
1.0
1.0
1.0
1.0
1.0

8
0.0001
1.0
0.0001
1.0
1.0
1.0
1.0
1.0

4
0.0001
1.0
1.0
1.0

4
0.0001
1.0
1.0
1.0

8
0.0001
1.0
0.0001
1.0
1.0
1.0
1.0
1.0

4
0.0001
1.0
1.0
1.0

4
0.0001
1.0
1.0
1.0

4
0.0001
1.0
1.0
1.0

8
0.0001
1.0
1.0
1.0
0.0001
1.0
1.0
1.0

4
0.0001
1.0
1.0
1.0

8
0.0001
1.0
0.0001
1.0
1.0
1.0
1.0
1.0

4
0.0001
1.0
1.0
1.0

4
0.0001
1.0
1.0
1.0

4
0.0001
1.0
1.0
1.0

4
0.0001
1.0
1.0
1.0

4
0.0001
1.0
1.0
1.0

4
0.0001
1.0
1.0
1.0

16
0.0001
1.0
1.0
1.0
1.0
0.0001
1.0
1.0
1.0
1.0
0.0001
1.0
1.0
1.0
1.0
1.0

8
0.0001
1.0
0.0001
1.0
1.0
1.0
1.0
1.0

8
0.0001
1.0
0.0001
1.0
1.0
1.0
1.0
1.0

8
0.0001
1.0
0.0001
1.0
1.0
1.0
1.0
1.0

4
0.0001
1.0
1.0
1.0

4
0.0001
1.0
1.0
1.0

4
0.0001
1.0
1.0
1.0

8
0.0001
1.0
0.0001
1.0
1.0
1.0
1.0
1.0

4
0.0001
1.0
1.0
1.0

4
0.0001
1.0
1.0
1.0

4
0.0001
1.0
1.0
1.0

4
0.0001
1.0
1.0
1.0

4
0.0001
1.0
1.0
1.0

8
0.0001
1.0
0.0001
1.0
1.0
1.0
1.0
1.0

16
0.0001
1.0
1.0
1.0
1.0
0.0001
1.0
1.0
1.0
1.0
0.0001
1.0
1.0
1.0
1.0
1.0

4
0.0001
1.0
1.0
1.0

4
0.0001
1.0
1.0
1.0

8
0.0001
1.0
1.0
1.0
0.0001
1.0
1.0
1.0

8
0.0001
1.0
1.0
1.0
0.0001
1.0
1.0
1.0

8
0.0001
1.0
0.0001
1.0
1.0
1.0
1.0
1.0

4
0.0001
1.0
1.0
1.0

4
0.0001
1.0
1.0
1.0

4
0.0001
1.0
1.0
1.0

16
0.0001
1.0
1.0
1.0
1.0
0.0001
1.0
1.0
1.0
1.0
0.0001
1.0
1.0
1.0
1.0
1.0

8
0.0001
1.0
0.0001
1.0
1.0
1.0
1.0
1.0

4
0.0001
1.0
1.0
1.0

4
0.0001
1.0
1.0
1.0

4
0.0001
1.0
1.0
1.0

8
0.0001
1.0
0.0001
1.0
1.0
1.0
1.0
1.0

8
0.0001
1.0
0.0001
1.0
1.0
1.0
1.0
1.0

8
0.0001
1.0
0.0001
1.0
1.0
1.0
1.0
1.0

8
0.0001
1.0
0.0001
1.0
1.0
1.0
1.0
1.0

8
0.0001
1.0
1.0
1.0
0.0001
1.0
1.0
1.0

8
1.0
0.0001
1.0
1.0
1.0
1.0
1.0
1.0

4
0.0001
1.0
1.0
1.0

16
0.0001
1.0
1.0
1.0
1.0
0.0001
1.0
1.0
1.0
1.0
0.0001
1.0
1.0
1.0
1.0
1.0

4
0.0001
1.0
1.0
1.0

8
0.0001
1.0
0.0001
1.0
1.0
1.0
1.0
1.0

8
0.0001
1.0
0.0001
1.0
1.0
1.0
1.0
1.0

8
0.0001
1.0
0.0001
1.0
1.0
1.0
1.0
1.0

8
0.0001
1.0
0.0001
1.0
1.0
1.0
1.0
1.0

8
0.0001
1.0
0.0001
1.0
1.0
1.0
1.0
1.0

4
0.0001
1.0
1.0
1.0

4
0.0001
1.0
1.0
1.0

4
0.0001
1.0
1.0
1.0

4
0.0001
1.0
1.0
1.0

4
0.0001
1.0
1.0
1.0

8
0.0001
1.0
1.0
1.0
0.0001
1.0
1.0
1.0

8
1.0
0.0001
1.0
1.0
1.0
1.0
1.0
1.0

4
0.0001
1.0
1.0
1.0

8
0.0001
1.0
0.0001
1.0
1.0
1.0
1.0
1.0

8
0.0001
1.0
1.0
1.0
0.0001
1.0
1.0
1.0

4
0.0001
1.0
1.0
1.0

8
0.0001
1.0
0.0001
1.0
1.0
1.0
1.0
1.0

8
0.0001
1.0
0.0001
1.0
1.0
1.0
1.0
1.0

8
0.0001
1.0
1.0
1.0
0.0001
1.0
1.0
1.0

8
0.0001
1.0
1.0
1.0
0.0001
1.0
1.0
1.0

16
1.0
0.0001
1.0
1.0
1.0
1.0
1.0
1.0
1.0
1.0
1.0
1.0
1.0
1.0
1.0
1.0

4
0.0001
1.0
1.0
1.0

8
0.0001
1.0
0.0001
1.0
1.0
1.0
1.0
1.0

4
0.0001
1.0
1.0
1.0

8
0.0001
1.0
0.0001
1.0
1.0
1.0
1.0
1.0

8
0.0001
1.0
0.0001
1.0
1.0
1.0
1.0
1.0

8
0.0001
1.0
0.0001
1.0
1.0
1.0
1.0
1.0

4
0.0001
1.0
1.0
1.0

4
0.0001
1.0
1.0
1.0

8
0.0001
1.0
0.0001
1.0
1.0
1.0
1.0
1.0

4
0.0001
1.0
1.0
1.0

4
0.0001
1.0
1.0
1.0

16
0.0001
1.0
1.0
1.0
1.0
0.0001
1.0
1.0
1.0
1.0
0.0001
1.0
1.0
1.0
1.0
1.0

4
0.0001
1.0
1.0
1.0

4
0.0001
1.0
1.0
1.0

8
0.0001
1.0
0.0001
1.0
1.0
1.0
1.0
1.0

8
0.0001
1.0
0.0001
1.0
1.0
1.0
1.0
1.0

4
0.0001
1.0
1.0
1.0

8
0.0001
1.0
0.0001
1.0
1.0
1.0
1.0
1.0

8
0.0001
1.0
0.0001
1.0
1.0
1.0
1.0
1.0

8
0.0001
1.0
1.0
1.0
0.0001
1.0
1.0
1.0

8
0.0001
1.0
0.0001
1.0
1.0
1.0
1.0
1.0

8
0.0001
1.0
0.0001
1.0
1.0
1.0
1.0
1.0

4
0.0001
1.0
1.0
1.0

8
1.0
1.0
0.0001
1.0
1.0
1.0
1.0
1.0

8
0.0001
1.0
0.0001
1.0
1.0
1.0
1.0
1.0

4
0.0001
1.0
1.0
1.0

4
0.0001
1.0
1.0
1.0

4
0.0001
1.0
1.0
1.0

4
0.0001
1.0
1.0
1.0

4
0.0001
1.0
1.0
1.0

4
0.0001
1.0
1.0
1.0

16
0.0001
1.0
1.0
1.0
1.0
0.0001
1.0
1.0
1.0
1.0
0.0001
1.0
1.0
1.0
1.0
1.0

8
0.0001
1.0
1.0
1.0
0.0001
1.0
1.0
1.0

4
0.0001
1.0
1.0
1.0

8
0.0001
1.0
0.0001
1.0
1.0
1.0
1.0
1.0

8
0.0001
1.0
1.0
1.0
0.0001
1.0
1.0
1.0

4
0.0001
1.0
1.0
1.0

4
0.0001
1.0
1.0
1.0

8
0.0001
1.0
0.0001
1.0
1.0
1.0
1.0
1.0

4
0.0001
1.0
1.0
1.0

16
0.0001
1.0
1.0
1.0
1.0
0.0001
1.0
1.0
1.0
1.0
0.0001
1.0
1.0
1.0
1.0
1.0

16
0.0001
1.0
1.0
1.0
1.0
0.0001
1.0
1.0
1.0
1.0
0.0001
1.0
1.0
1.0
1.0
1.0

8
0.0001
1.0
0.0001
1.0
1.0
1.0
1.0
1.0

4
0.0001
1.0
1.0
1.0

4
0.0001
1.0
1.0
1.0

4
0.0001
1.0
1.0
1.0

4
0.0001
1.0
1.0
1.0

4
0.0001
1.0
1.0
1.0

4
0.0001
1.0
1.0
1.0

8
1.0
0.0001
1.0
1.0
1.0
1.0
1.0
1.0

4
0.0001
1.0
1.0
1.0

4
0.0001
1.0
1.0
1.0

4
0.0001
1.0
1.0
1.0

4
0.0001
1.0
1.0
1.0

16
0.0001
1.0
1.0
1.0
1.0
0.0001
1.0
1.0
1.0
1.0
0.0001
1.0
1.0
1.0
1.0
1.0

8
0.0001
1.0
0.0001
1.0
1.0
1.0
1.0
1.0

16
0.0001
1.0
1.0
1.0
1.0
0.0001
1.0
1.0
1.0
1.0
0.0001
1.0
1.0
1.0
1.0
1.0

8
0.0001
1.0
0.0001
1.0
1.0
1.0
1.0
1.0

4
0.0001
1.0
1.0
1.0

4
0.0001
1.0
1.0
1.0

16
0.0001
1.0
1.0
1.0
1.0
0.0001
1.0
1.0
1.0
1.0
0.0001
1.0
1.0
1.0
1.0
1.0

8
1.0
0.0001
1.0
1.0
1.0
1.0
1.0
1.0

8
0.0001
1.0
0.0001
1.0
1.0
1.0
1.0
1.0

8
0.0001
1.0
0.0001
1.0
1.0
1.0
1.0
1.0

4
0.0001
1.0
1.0
1.0

8
0.0001
1.0
1.0
1.0
0.0001
1.0
1.0
1.0

4
0.0001
1.0
1.0
1.0

4
0.0001
1.0
1.0
1.0

8
0.0001
1.0
0.0001
1.0
1.0
1.0
1.0
1.0

8
0.0001
1.0
0.0001
1.0
1.0
1.0
1.0
1.0

4
0.0001
1.0
1.0
1.0

8
0.0001
1.0
0.0001
1.0
1.0
1.0
1.0
1.0

8
1.0
0.0001
1.0
1.0
1.0
1.0
1.0
1.0

4
0.0001
1.0
1.0
1.0

8
0.0001
1.0
0.0001
1.0
1.0
1.0
1.0
1.0

4
0.0001
1.0
1.0
1.0

8
0.0001
1.0
0.0001
1.0
1.0
1.0
1.0
1.0

4
0.0001
1.0
1.0
1.0

8
1.0
1.0
0.0001
1.0
1.0
1.0
1.0
1.0

4
0.0001
1.0
1.0
1.0

8
0.0001
1.0
0.0001
1.0
1.0
1.0
1.0
1.0

4
0.0001
1.0
1.0
1.0

4
1.0
1.0
1.0
0.945387283131

4
1.0
1.0
1.0
0.945387283131

4
1.0
1.0
1.0
0.945387283131

4
1.0
1.0
1.0
0.945387283131

2
1.0
0.893757115105

2
1.0
0.945387283131

2
1.0
0.945387283131

2
1.0
0.893757115105

4
1.0
1.0
1.0
0.945387283131

4
1.0
1.0
1.0
0.945387283131

4
1.0
1.0
1.0
0.945387283131

2
1.0
0.893757115105

2
1.0
0.893757115105

2
1.0
0.893757115105

2
1.0
0.945387283131

2
1.0
0.945387283131

2
1.0
0.893757115105

2
1.0
0.893757115105

4
1.0
1.0
1.0
0.945387283131

4
1.0
1.0
1.0
0.945387283131

2
1.0
0.893757115105

2
1.0
0.893757115105

2
1.0
0.893757115105

2
1.0
0.893757115105

2
1.0
0.893757115105

2
1.0
0.893757115105

2
1.0
0.893757115105

2
1.0
0.893757115105

4
1.0
1.0
1.0
0.945387283131

4
1.0
1.0
1.0
0.945387283131

2
1.0
0.893757115105

4
1.0
1.0
1.0
0.945387283131

2
1.0
0.893757115105

4
1.0
1.0
1.0
0.945387283131

2
1.0
0.893757115105

2
1.0
0.893757115105

2
1.0
0.893757115105

2
1.0
0.893757115105

2
1.0
0.893757115105

2
1.0
0.893757115105

2
1.0
0.893757115105

2
1.0
0.893757115105

2
1.0
0.945387283131

2
1.0
0.945387283131

2
1.0
0.893757115105

2
1.0
0.893757115105

2
1.0
0.893757115105

2
1.0
0.945387283131

2
1.0
0.945387283131

4
1.0
1.0
1.0
0.945387283131

2
1.0
0.893757115105

2
1.0
0.893757115105

2
1.0
0.893757115105

2
1.0
0.893757115105

2
1.0
0.893757115105

2
1.0
0.893757115105

4
1.0
1.0
1.0
0.945387283131

4
1.0
1.0
1.0
0.945387283131

2
1.0
0.893757115105

4
1.0
1.0
1.0
0.945387283131

2
1.0
0.893757115105

2
1.0
0.893757115105

2
1.0
0.893757115105

2
1.0
0.893757115105

2
1.0
0.893757115105

2
1.0
0.893757115105

2
1.0
0.893757115105

4
1.0
1.0
1.0
0.945387283131

2
1.0
0.893757115105

2
1.0
0.893757115105

2
1.0
0.893757115105

2
1.0
0.893757115105

2
1.0
0.893757115105

2
1.0
0.893757115105

2
1.0
0.893757115105

2
1.0
0.893757115105

2
1.0
0.893757115105

2
1.0
0.893757115105

2
1.0
0.893757115105

2
1.0
0.893757115105

2
1.0
0.893757115105

4
1.0
1.0
1.0
0.945387283131

4
1.0
1.0
1.0
0.945387283131

4
1.0
1.0
1.0
0.945387283131

4
1.0
1.0
1.0
0.945387283131

4
1.0
1.0
1.0
0.945387283131

2
1.0
0.893757115105

4
1.0
1.0
1.0
0.945387283131

2
1.0
0.893757115105

2
1.0
0.893757115105

4
1.0
1.0
1.0
0.945387283131

2
1.0
0.893757115105

2
1.0
0.893757115105

4
1.0
1.0
1.0
0.945387283131

2
1.0
0.893757115105

2
1.0
0.893757115105

2
1.0
0.893757115105

4
1.0
1.0
1.0
0.945387283131

4
1.0
1.0
1.0
0.945387283131

4
1.0
1.0
1.0
0.945387283131

